Welcome to the CBC MILP Solver 
Version: Trunk
Build Date: Apr 16 2020 

Starting solution of the Linear programming relaxation problem using Primal Simplex

Using Python-MIP package version 1.8.1
Machines:  3 Jobs:  3
Order: 
Job  0 : machine 1 ( 7 ) machine 2 ( 7 ) machine 0 ( 1 ) 
Job  1 : machine 1 ( 4 ) machine 0 ( 3 ) machine 2 ( 7 ) 
Job  2 : machine 1 ( 7 ) machine 2 ( 6 ) machine 0 ( 2 ) 
K:  33
Job  0 , e: machine  0 ( 14 ) machine  1 ( 0 ) machine  2 ( 7 ) 
Job  1 , e: machine  0 ( 4 ) machine  1 ( 0 ) machine  2 ( 7 ) 
Job  2 , e: machine  0 ( 13 ) machine  1 ( 0 ) machine  2 ( 7 ) 
Job  0 , f: machine  0 ( 0 ) machine  1 ( 8 ) machine  2 ( 1 ) 
Job  1 , f: machine  0 ( 7 ) machine  1 ( 10 ) machine  2 ( 0 ) 
Job  2 , f: machine  0 ( 0 ) machine  1 ( 8 ) machine  2 ( 2 ) 
EST and LST:
Job: 0 Machine: 0 EST: 14 LST: 32
Job: 0 Machine: 1 EST: 0 LST: 18
Job: 0 Machine: 2 EST: 7 LST: 25
Job: 1 Machine: 0 EST: 4 LST: 23
Job: 1 Machine: 1 EST: 0 LST: 19
Job: 1 Machine: 2 EST: 7 LST: 26
Job: 2 Machine: 0 EST: 13 LST: 31
Job: 2 Machine: 1 EST: 0 LST: 18
Job: 2 Machine: 2 EST: 7 LST: 25
Order:
Job: 0 Machine: 0 = 2 
Job: 0 Machine: 1 = 0 
Job: 0 Machine: 2 = 1 
Job: 1 Machine: 0 = 1 
Job: 1 Machine: 1 = 0 
Job: 1 Machine: 2 = 2 
Job: 2 Machine: 0 = 2 
Job: 2 Machine: 1 = 0 
Job: 2 Machine: 2 = 1 
Distances:
Job 0, Machine 1 -> Machine 2: distance 7
Job 0, Machine 1 -> Machine 0: distance 14
Job 0, Machine 2 -> Machine 0: distance 7
Job 1, Machine 1 -> Machine 0: distance 4
Job 1, Machine 1 -> Machine 2: distance 7
Job 1, Machine 0 -> Machine 2: distance 3
Job 2, Machine 1 -> Machine 2: distance 7
Job 2, Machine 1 -> Machine 0: distance 13
Job 2, Machine 2 -> Machine 0: distance 6
McCormic linearization
[(0, 1), (1, 2), (0, 2), (2, 1), (2, 0), (2, 2), (1, 0), (1, 1)]
obj:  0.0
solutions:  1
+ 0.14285714285714285x(0,1) + 0.14285714285714285x(2,1) 
C:  18.5
x(0,0) = 17.50	 x(0,1) = 3.50	 x(0,2) = 10.50	 
x(1,0) = 8.50	 x(1,1) = 4.50	 x(1,2) = 11.50	 
x(2,0) = 16.50	 x(2,1) = 3.50	 x(2,2) = 10.50	 
y(0,1,0) = 0.00	 y(1,0,0) = 1.00	 
y(0,2,0) = 0.90	 y(2,0,0) = 0.10	 
y(1,2,0) = 0.59	 y(2,1,0) = 0.41	 
y(0,1,1) = 0.22	 y(1,0,1) = 0.78	 
y(0,2,1) = 0.50	 y(2,0,1) = 0.50	 
y(1,2,1) = 0.36	 y(2,1,1) = 0.64	 
y(0,1,2) = 0.50	 y(1,0,2) = 0.50	 
y(0,2,2) = 0.42	 y(2,0,2) = 0.58	 
y(1,2,2) = 0.50	 y(2,1,2) = 0.50	 
obj:  0.7948717948717949
solutions:  1
+ 0.025641025641025644x(1,2) + 0.02197802197802198x(2,2) + 0.02564102564102564x(0,2) 
[(0, 1), (1, 2), (2, 1), (2, 0), (2, 2), (1, 0), (0, 2)]
cliques:  1 mip: 20
C:  21.341176470587364
x(0,0) = 20.22	 x(0,1) = 6.22	 x(0,2) = 13.22	 
x(1,0) = 7.88	 x(1,1) = 2.37	 x(1,2) = 14.34	 
x(2,0) = 19.34	 x(2,1) = 0.78	 x(2,2) = 13.34	 
y(0,1,0) = 0.00	 y(1,0,0) = 1.00	 
y(0,2,0) = 0.06	 y(2,0,0) = 0.94	 
y(1,2,0) = 0.65	 y(2,1,0) = 0.35	 
y(0,1,1) = 0.01	 y(1,0,1) = 0.99	 
y(0,2,1) = 0.21	 y(2,0,1) = 0.79	 
y(1,2,1) = 0.45	 y(2,1,1) = 0.55	 
y(0,1,2) = 0.31	 y(1,0,2) = 0.69	 
y(0,2,2) = 0.25	 y(2,0,2) = 0.75	 
y(1,2,2) = 0.69	 y(2,1,2) = 0.31	 
obj:  0.5332399626519341
solutions:  1
+ 0.24999999999999997x(2,1) + 0.14285714285714288x(1,1) 
[(1, 2), (0, 2), (2, 1), (2, 0), (2, 2), (1, 0), (1, 1)]
cliques:  1 mip: 43
C:  22.778785089737692
x(0,0) = 21.78	 x(0,1) = 5.52	 x(0,2) = 14.78	 
x(1,0) = 10.24	 x(1,1) = 4.41	 x(1,2) = 13.24	 
x(2,0) = 18.82	 x(2,1) = 1.48	 x(2,2) = 12.82	 
y(0,1,0) = 0.00	 y(1,0,0) = 1.00	 
y(0,2,0) = 0.00	 y(2,0,0) = 1.00	 
y(1,2,0) = 0.96	 y(2,1,0) = 0.04	 
y(0,1,1) = 0.13	 y(1,0,1) = 0.87	 
y(0,2,1) = 0.21	 y(2,0,1) = 0.79	 
y(1,2,1) = 0.16	 y(2,1,1) = 0.84	 
y(0,1,2) = 0.66	 y(1,0,2) = 0.34	 
y(0,2,2) = 0.64	 y(2,0,2) = 0.36	 
y(1,2,2) = 0.32	 y(2,1,2) = 0.68	 
obj:  0.6345425699798483
solutions:  1
+ 0.06666666666666667x(0,1) + 0.06666666666666668x(2,1) + 0.03809523809523809x(1,1) 
[(1, 2), (0, 1), (2, 1), (1, 1), (2, 2), (0, 2)]
cliques:  1 mip: 50
C:  23.999875501160584
x(0,0) = 22.06	 x(0,1) = 4.48	 x(0,2) = 11.48	 
x(1,0) = 12.47	 x(1,1) = 6.90	 x(1,2) = 15.47	 
x(2,0) = 20.06	 x(2,1) = 6.58	 x(2,2) = 14.06	 
y(0,1,0) = 0.00	 y(1,0,0) = 1.00	 
y(0,2,0) = 0.00	 y(2,0,0) = 1.00	 
y(1,2,0) = 0.94	 y(2,1,0) = 0.06	 
y(0,1,1) = 0.38	 y(1,0,1) = 0.62	 
y(0,2,1) = 0.36	 y(2,0,1) = 0.64	 
y(1,2,1) = 0.27	 y(2,1,1) = 0.73	 
y(0,1,2) = 0.78	 y(1,0,2) = 0.22	 
y(0,2,2) = 0.65	 y(2,0,2) = 0.35	 
y(1,2,2) = 0.19	 y(2,1,2) = 0.81	 
obj:  1.0000000000000002
erro
[(0, 1), (1, 2), (2, 1), (1, 1), (2, 2), (0, 2)]
cliques:  0 mip: 42
C:  24.72804656249537
x(0,0) = 20.31	 x(0,1) = 4.31	 x(0,2) = 11.31	 
x(1,0) = 14.13	 x(1,1) = 10.13	 x(1,2) = 17.13	 
x(2,0) = 18.31	 x(2,1) = 4.90	 x(2,2) = 12.31	 
y(0,1,0) = 0.00	 y(1,0,0) = 1.00	 
y(0,2,0) = 0.00	 y(2,0,0) = 1.00	 
y(1,2,0) = 0.98	 y(2,1,0) = 0.02	 
y(0,1,1) = 0.88	 y(1,0,1) = 0.12	 
y(0,2,1) = 0.71	 y(2,0,1) = 0.29	 
y(1,2,1) = 0.15	 y(2,1,1) = 0.85	 
y(0,1,2) = 0.95	 y(1,0,2) = 0.05	 
y(0,2,2) = 0.29	 y(2,0,2) = 0.71	 
y(1,2,2) = 0.07	 y(2,1,2) = 0.93	 
obj:  0.9999999999999989
erro
[(0, 1), (1, 2), (0, 2), (2, 1), (2, 2), (1, 1)]
cliques:  0 mip: 50
C:  25.000000000000004
x(0,0) = 21.72	 x(0,1) = 3.28	 x(0,2) = 10.28	 
x(1,0) = 14.13	 x(1,1) = 8.75	 x(1,2) = 17.13	 
x(2,0) = 19.72	 x(2,1) = 6.72	 x(2,2) = 13.72	 
y(0,1,0) = 0.00	 y(1,0,0) = 1.00	 
y(0,2,0) = 0.00	 y(2,0,0) = 1.00	 
y(1,2,0) = 0.97	 y(2,1,0) = 0.03	 
y(0,1,1) = 0.63	 y(1,0,1) = 0.37	 
y(0,2,1) = 0.80	 y(2,0,1) = 0.20	 
y(1,2,1) = 0.33	 y(2,1,1) = 0.67	 
y(0,1,2) = 0.94	 y(1,0,2) = 0.06	 
y(0,2,2) = 0.86	 y(2,0,2) = 0.14	 
y(1,2,2) = 0.11	 y(2,1,2) = 0.89	 
obj:  0.9999999999999998
erro
[(0, 1), (1, 2), (2, 1), (1, 1), (2, 2), (0, 2)]
cliques:  0 mip: 39
C:  25.02930644583622
x(0,0) = 22.15	 x(0,1) = 2.38	 x(0,2) = 9.90	 
x(1,0) = 13.97	 x(1,1) = 9.85	 x(1,2) = 16.97	 
x(2,0) = 20.15	 x(2,1) = 6.99	 x(2,2) = 14.15	 
y(0,1,0) = 0.00	 y(1,0,0) = 1.00	 
y(0,2,0) = 0.00	 y(2,0,0) = 1.00	 
y(1,2,0) = 0.98	 y(2,1,0) = 0.02	 
y(0,1,1) = 0.89	 y(1,0,1) = 0.11	 
y(0,2,1) = 0.77	 y(2,0,1) = 0.23	 
y(1,2,1) = 0.17	 y(2,1,1) = 0.83	 
y(0,1,2) = 0.92	 y(1,0,2) = 0.08	 
y(0,2,2) = 0.79	 y(2,0,2) = 0.21	 
y(1,2,2) = 0.13	 y(2,1,2) = 0.87	 
obj:  0.9999999999999998
erro
[(0, 1), (1, 2), (0, 2), (2, 1), (2, 2), (1, 1)]
cliques:  0 mip: 48
C:  25.999999999999996
x(0,0) = 25.00	 x(0,1) = 4.40	 x(0,2) = 11.40	 
x(1,0) = 15.40	 x(1,1) = 8.83	 x(1,2) = 18.40	 
x(2,0) = 23.00	 x(2,1) = 5.55	 x(2,2) = 13.35	 
y(0,1,0) = 0.00	 y(1,0,0) = 1.00	 
y(0,2,0) = 0.00	 y(2,0,0) = 1.00	 
y(1,2,0) = 0.91	 y(2,1,0) = 0.09	 
y(0,1,1) = 0.37	 y(1,0,1) = 0.63	 
y(0,2,1) = 0.59	 y(2,0,1) = 0.41	 
y(1,2,1) = 0.29	 y(2,1,1) = 0.71	 
y(0,1,2) = 1.00	 y(1,0,2) = 0.00	 
y(0,2,2) = 0.70	 y(2,0,2) = 0.30	 
y(1,2,2) = 0.07	 y(2,1,2) = 0.93	 
obj:  0.9999999999999999
erro
[(0, 1), (2, 1), (2, 0), (1, 1), (2, 2), (1, 0), (0, 2)]
cliques:  0 mip: 35
C:  26.0
x(0,0) = 24.18	 x(0,1) = 7.23	 x(0,2) = 14.23	 
x(1,0) = 13.12	 x(1,1) = 9.12	 x(1,2) = 16.12	 
x(2,0) = 19.88	 x(2,1) = 2.56	 x(2,2) = 12.41	 
y(0,1,0) = 0.00	 y(1,0,0) = 1.00	 
y(0,2,0) = 0.41	 y(2,0,0) = 0.59	 
y(1,2,0) = 0.94	 y(2,1,0) = 0.06	 
y(0,1,1) = 0.42	 y(1,0,1) = 0.58	 
y(0,2,1) = 0.13	 y(2,0,1) = 0.87	 
y(1,2,1) = 0.02	 y(2,1,1) = 0.98	 
y(0,1,2) = 0.72	 y(1,0,2) = 0.28	 
y(0,2,2) = 0.37	 y(2,0,2) = 0.63	 
y(1,2,2) = 0.34	 y(2,1,2) = 0.66	 
obj:  1.0508565945226682
erro
[(0, 1), (1, 2), (0, 0), (2, 0), (1, 1), (2, 2), (0, 2)]
cliques:  0 mip: 46
C:  26.000000000000004
x(0,0) = 23.90	 x(0,1) = 6.89	 x(0,2) = 13.89	 
x(1,0) = 12.95	 x(1,1) = 8.95	 x(1,2) = 15.95	 
x(2,0) = 23.55	 x(2,1) = 3.00	 x(2,2) = 11.89	 
y(0,1,0) = 0.00	 y(1,0,0) = 1.00	 
y(0,2,0) = 0.55	 y(2,0,0) = 0.45	 
y(1,2,0) = 0.65	 y(2,1,0) = 0.35	 
y(0,1,1) = 0.41	 y(1,0,1) = 0.59	 
y(0,2,1) = 0.12	 y(2,0,1) = 0.88	 
y(1,2,1) = 0.04	 y(2,1,1) = 0.96	 
y(0,1,2) = 0.78	 y(1,0,2) = 0.22	 
y(0,2,2) = 0.41	 y(2,0,2) = 0.59	 
y(1,2,2) = 0.08	 y(2,1,2) = 0.92	 
obj:  1.0263418724685387
erro
[(0, 1), (1, 2), (0, 0), (2, 0), (1, 1), (2, 2), (1, 0), (0, 2)]
cliques:  0 mip: 45
C:  26.0
x(0,0) = 23.79	 x(0,1) = 2.61	 x(0,2) = 12.04	 
x(1,0) = 13.77	 x(1,1) = 9.77	 x(1,2) = 16.77	 
x(2,0) = 23.61	 x(2,1) = 6.81	 x(2,2) = 13.81	 
y(0,1,0) = 0.00	 y(1,0,0) = 1.00	 
y(0,2,0) = 0.61	 y(2,0,0) = 0.39	 
y(1,2,0) = 0.81	 y(2,1,0) = 0.19	 
y(0,1,1) = 0.66	 y(1,0,1) = 0.34	 
y(0,2,1) = 0.66	 y(2,0,1) = 0.34	 
y(1,2,1) = 0.16	 y(2,1,1) = 0.84	 
y(0,1,2) = 0.85	 y(1,0,2) = 0.15	 
y(0,2,2) = 0.79	 y(2,0,2) = 0.21	 
y(1,2,2) = 0.28	 y(2,1,2) = 0.72	 
obj:  1.0
erro
[(0, 1), (1, 2), (0, 0), (0, 2), (2, 1), (2, 0), (2, 2), (1, 1)]
cliques:  0 mip: 47
C:  26.000000000000004
x(0,0) = 24.36	 x(0,1) = 4.56	 x(0,2) = 13.28	 
x(1,0) = 13.53	 x(1,1) = 9.53	 x(1,2) = 16.53	 
x(2,0) = 23.32	 x(2,1) = 4.99	 x(2,2) = 11.99	 
y(0,1,0) = 0.00	 y(1,0,0) = 1.00	 
y(0,2,0) = 0.32	 y(2,0,0) = 0.68	 
y(1,2,0) = 0.87	 y(2,1,0) = 0.13	 
y(0,1,1) = 0.54	 y(1,0,1) = 0.46	 
y(0,2,1) = 0.74	 y(2,0,1) = 0.26	 
y(1,2,1) = 0.17	 y(2,1,1) = 0.83	 
y(0,1,2) = 0.85	 y(1,0,2) = 0.15	 
y(0,2,2) = 0.51	 y(2,0,2) = 0.49	 
y(1,2,2) = 0.14	 y(2,1,2) = 0.86	 
obj:  0.9999999999999999
erro
[(0, 1), (0, 0), (0, 2), (2, 1), (2, 0), (2, 2), (1, 1)]
cliques:  0 mip: 46
C:  25.999999999999943
x(0,0) = 23.82	 x(0,1) = 2.85	 x(0,2) = 11.47	 
x(1,0) = 13.43	 x(1,1) = 9.43	 x(1,2) = 16.43	 
x(2,0) = 23.59	 x(2,1) = 7.46	 x(2,2) = 14.46	 
y(0,1,0) = 0.00	 y(1,0,0) = 1.00	 
y(0,2,0) = 0.59	 y(2,0,0) = 0.41	 
y(1,2,0) = 0.65	 y(2,1,0) = 0.35	 
y(0,1,1) = 0.49	 y(1,0,1) = 0.51	 
y(0,2,1) = 0.59	 y(2,0,1) = 0.41	 
y(1,2,1) = 0.41	 y(2,1,1) = 0.59	 
y(0,1,2) = 0.75	 y(1,0,2) = 0.25	 
y(0,2,2) = 0.77	 y(2,0,2) = 0.23	 
y(1,2,2) = 0.32	 y(2,1,2) = 0.68	 
obj:  1.0466873942317019
erro
[(0, 1), (0, 0), (2, 1), (2, 0), (1, 0), (1, 1)]
cliques:  0 mip: 48
C:  25.999999999999996
x(0,0) = 23.67	 x(0,1) = 4.32	 x(0,2) = 12.83	 
x(1,0) = 12.52	 x(1,1) = 7.71	 x(1,2) = 15.52	 
x(2,0) = 23.66	 x(2,1) = 6.30	 x(2,2) = 13.30	 
y(0,1,0) = 0.00	 y(1,0,0) = 1.00	 
y(0,2,0) = 0.66	 y(2,0,0) = 0.34	 
y(1,2,0) = 0.66	 y(2,1,0) = 0.34	 
y(0,1,1) = 0.36	 y(1,0,1) = 0.64	 
y(0,2,1) = 0.56	 y(2,0,1) = 0.44	 
y(1,2,1) = 0.38	 y(2,1,1) = 0.62	 
y(0,1,2) = 0.77	 y(1,0,2) = 0.23	 
y(0,2,2) = 0.74	 y(2,0,2) = 0.26	 
y(1,2,2) = 0.44	 y(2,1,2) = 0.56	 
obj:  1.001918067292974
erro
[(0, 1), (1, 2), (2, 1), (2, 0), (2, 2), (1, 0), (1, 1)]
cliques:  0 mip: 51
C:  25.999999999999996
x(0,0) = 24.23	 x(0,1) = 2.94	 x(0,2) = 10.74	 
x(1,0) = 15.09	 x(1,1) = 9.72	 x(1,2) = 18.09	 
x(2,0) = 23.13	 x(2,1) = 6.51	 x(2,2) = 13.51	 
y(0,1,0) = 0.00	 y(1,0,0) = 1.00	 
y(0,2,0) = 0.38	 y(2,0,0) = 0.62	 
y(1,2,0) = 0.57	 y(2,1,0) = 0.43	 
y(0,1,1) = 0.62	 y(1,0,1) = 0.38	 
y(0,2,1) = 0.76	 y(2,0,1) = 0.24	 
y(1,2,1) = 0.24	 y(2,1,1) = 0.76	 
y(0,1,2) = 0.87	 y(1,0,2) = 0.13	 
y(0,2,2) = 0.71	 y(2,0,2) = 0.29	 
y(1,2,2) = 0.11	 y(2,1,2) = 0.89	 
obj:  1.0
erro
[(0, 1), (0, 0), (0, 2), (2, 1), (2, 0), (2, 2), (1, 0), (1, 1)]
cliques:  0 mip: 50
C:  26.000000000000004
x(0,0) = 24.20	 x(0,1) = 5.42	 x(0,2) = 12.42	 
x(1,0) = 13.37	 x(1,1) = 9.29	 x(1,2) = 16.37	 
x(2,0) = 22.83	 x(2,1) = 5.10	 x(2,2) = 13.28	 
y(0,1,0) = 0.00	 y(1,0,0) = 1.00	 
y(0,2,0) = 0.40	 y(2,0,0) = 0.60	 
y(1,2,0) = 0.66	 y(2,1,0) = 0.34	 
y(0,1,1) = 0.46	 y(1,0,1) = 0.54	 
y(0,2,1) = 0.49	 y(2,0,1) = 0.51	 
y(1,2,1) = 0.11	 y(2,1,1) = 0.89	 
y(0,1,2) = 0.66	 y(1,0,2) = 0.34	 
y(0,2,2) = 0.61	 y(2,0,2) = 0.39	 
y(1,2,2) = 0.33	 y(2,1,2) = 0.67	 
obj:  1.030115033989012
erro
[(0, 1), (1, 2), (0, 0), (0, 2), (2, 1), (2, 0), (2, 2), (1, 1)]
cliques:  0 mip: 50
C:  26.000000000000004
x(0,0) = 24.24	 x(0,1) = 3.88	 x(0,2) = 12.24	 
x(1,0) = 13.61	 x(1,1) = 8.69	 x(1,2) = 16.61	 
x(2,0) = 23.34	 x(2,1) = 6.39	 x(2,2) = 13.39	 
y(0,1,0) = 0.00	 y(1,0,0) = 1.00	 
y(0,2,0) = 0.38	 y(2,0,0) = 0.62	 
y(1,2,0) = 0.81	 y(2,1,0) = 0.19	 
y(0,1,1) = 0.47	 y(1,0,1) = 0.53	 
y(0,2,1) = 0.52	 y(2,0,1) = 0.48	 
y(1,2,1) = 0.32	 y(2,1,1) = 0.68	 
y(0,1,2) = 0.70	 y(1,0,2) = 0.30	 
y(0,2,2) = 0.62	 y(2,0,2) = 0.38	 
y(1,2,2) = 0.24	 y(2,1,2) = 0.76	 
obj:  1.0157179695131708
erro
[(0, 1), (0, 0), (0, 2), (2, 1), (2, 0), (2, 2), (1, 1)]
cliques:  0 mip: 50
C:  26.000000000000004
x(0,0) = 24.56	 x(0,1) = 5.06	 x(0,2) = 13.09	 
x(1,0) = 13.00	 x(1,1) = 8.40	 x(1,2) = 16.00	 
x(2,0) = 23.22	 x(2,1) = 6.06	 x(2,2) = 13.06	 
y(0,1,0) = 0.00	 y(1,0,0) = 1.00	 
y(0,2,0) = 0.22	 y(2,0,0) = 0.78	 
y(1,2,0) = 0.48	 y(2,1,0) = 0.52	 
y(0,1,1) = 0.39	 y(1,0,1) = 0.61	 
y(0,2,1) = 0.42	 y(2,0,1) = 0.58	 
y(1,2,1) = 0.29	 y(2,1,1) = 0.71	 
y(0,1,2) = 0.62	 y(1,0,2) = 0.38	 
y(0,2,2) = 0.53	 y(2,0,2) = 0.47	 
y(1,2,2) = 0.32	 y(2,1,2) = 0.68	 
obj:  1.0330944792916368
erro
[(0, 1), (1, 2), (2, 1), (2, 0), (1, 1), (2, 2), (1, 0), (0, 2)]
cliques:  0 mip: 49
C:  26.000000000000004
x(0,0) = 23.17	 x(0,1) = 2.40	 x(0,2) = 10.69	 
x(1,0) = 14.57	 x(1,1) = 10.46	 x(1,2) = 17.57	 
x(2,0) = 22.48	 x(2,1) = 6.62	 x(2,2) = 13.80	 
y(0,1,0) = 0.00	 y(1,0,0) = 1.00	 
y(0,2,0) = 0.92	 y(2,0,0) = 0.08	 
y(1,2,0) = 0.82	 y(2,1,0) = 0.18	 
y(0,1,1) = 0.69	 y(1,0,1) = 0.31	 
y(0,2,1) = 0.66	 y(2,0,1) = 0.34	 
y(1,2,1) = 0.19	 y(2,1,1) = 0.81	 
y(0,1,2) = 0.80	 y(1,0,2) = 0.20	 
y(0,2,2) = 0.76	 y(2,0,2) = 0.24	 
y(1,2,2) = 0.14	 y(2,1,2) = 0.86	 
obj:  1.0000000000000002
erro
[(0, 1), (1, 2), (2, 1), (1, 1), (2, 2), (0, 2)]
cliques:  0 mip: 51
C:  26.000000000000004
x(0,0) = 23.07	 x(0,1) = 4.38	 x(0,2) = 11.38	 
x(1,0) = 14.31	 x(1,1) = 9.62	 x(1,2) = 17.31	 
x(2,0) = 23.37	 x(2,1) = 5.12	 x(2,2) = 13.26	 
y(0,1,0) = 0.00	 y(1,0,0) = 1.00	 
y(0,2,0) = 0.96	 y(2,0,0) = 0.04	 
y(1,2,0) = 0.75	 y(2,1,0) = 0.25	 
y(0,1,1) = 0.58	 y(1,0,1) = 0.42	 
y(0,2,1) = 0.64	 y(2,0,1) = 0.36	 
y(1,2,1) = 0.10	 y(2,1,1) = 0.90	 
y(0,1,2) = 0.78	 y(1,0,2) = 0.22	 
y(0,2,2) = 0.68	 y(2,0,2) = 0.32	 
y(1,2,2) = 0.19	 y(2,1,2) = 0.81	 
obj:  1.0
erro
[(0, 1), (1, 2), (2, 1), (2, 0), (1, 1), (2, 2), (1, 0), (0, 2)]
cliques:  0 mip: 49
C:  26.000000000000004
x(0,0) = 23.24	 x(0,1) = 2.83	 x(0,2) = 11.01	 
x(1,0) = 14.59	 x(1,1) = 10.46	 x(1,2) = 17.59	 
x(2,0) = 21.84	 x(2,1) = 6.19	 x(2,2) = 13.19	 
y(0,1,0) = 0.00	 y(1,0,0) = 1.00	 
y(0,2,0) = 0.88	 y(2,0,0) = 0.12	 
y(1,2,0) = 0.81	 y(2,1,0) = 0.19	 
y(0,1,1) = 0.69	 y(1,0,1) = 0.31	 
y(0,2,1) = 0.63	 y(2,0,1) = 0.37	 
y(1,2,1) = 0.12	 y(2,1,1) = 0.88	 
y(0,1,2) = 0.79	 y(1,0,2) = 0.21	 
y(0,2,2) = 0.76	 y(2,0,2) = 0.24	 
y(1,2,2) = 0.17	 y(2,1,2) = 0.83	 
obj:  0.9999999999999996
erro
[(0, 1), (1, 2), (2, 1), (2, 0), (1, 1), (2, 2), (1, 0), (0, 2)]
cliques:  0 mip: 49
C:  26.0
x(0,0) = 24.12	 x(0,1) = 2.65	 x(0,2) = 10.27	 
x(1,0) = 15.10	 x(1,1) = 10.69	 x(1,2) = 18.10	 
x(2,0) = 23.44	 x(2,1) = 6.24	 x(2,2) = 13.24	 
y(0,1,0) = 0.00	 y(1,0,0) = 1.00	 
y(0,2,0) = 0.44	 y(2,0,0) = 0.56	 
y(1,2,0) = 0.91	 y(2,1,0) = 0.09	 
y(0,1,1) = 0.74	 y(1,0,1) = 0.26	 
y(0,2,1) = 0.74	 y(2,0,1) = 0.26	 
y(1,2,1) = 0.13	 y(2,1,1) = 0.87	 
y(0,1,2) = 0.88	 y(1,0,2) = 0.12	 
y(0,2,2) = 0.82	 y(2,0,2) = 0.18	 
y(1,2,2) = 0.11	 y(2,1,2) = 0.89	 
obj:  1.0
erro
[(0, 1), (0, 0), (0, 2), (2, 1), (2, 0), (2, 2), (1, 1)]
cliques:  0 mip: 50
C:  26.0
x(0,0) = 23.55	 x(0,1) = 3.25	 x(0,2) = 10.92	 
x(1,0) = 14.60	 x(1,1) = 10.31	 x(1,2) = 17.60	 
x(2,0) = 23.73	 x(2,1) = 6.10	 x(2,2) = 13.10	 
y(0,1,0) = 0.00	 y(1,0,0) = 1.00	 
y(0,2,0) = 0.73	 y(2,0,0) = 0.27	 
y(1,2,0) = 0.90	 y(2,1,0) = 0.10	 
y(0,1,1) = 0.66	 y(1,0,1) = 0.34	 
y(0,2,1) = 0.66	 y(2,0,1) = 0.34	 
y(1,2,1) = 0.17	 y(2,1,1) = 0.83	 
y(0,1,2) = 0.82	 y(1,0,2) = 0.18	 
y(0,2,2) = 0.76	 y(2,0,2) = 0.24	 
y(1,2,2) = 0.17	 y(2,1,2) = 0.83	 
obj:  1.0163516735295663
erro
[(0, 1), (1, 2), (0, 0), (0, 2), (2, 1), (2, 0), (2, 2), (1, 1)]
cliques:  0 mip: 0
iterações: 23 cortes cliques encontrados: 4 mip: 1026 objective:  26.0
Coin0506I Presolve 65 (-61) rows, 39 (-25) columns and 202 (-86) elements
Clp1000I sum of infeasibilities 3.24924e-06 - average 4.99884e-08, 0 fixed columns
Coin0506I Presolve 65 (0) rows, 39 (0) columns and 202 (0) elements
Clp0029I End of values pass after 39 iterations
Clp0000I Optimal - objective value 15
Clp0000I Optimal - objective value 15
Coin0511I After Postsolve, objective 15, infeasibilities - dual 0 (0), primal 0 (0)
Clp0000I Optimal - objective value 15
Clp0000I Optimal - objective value 15
Clp0000I Optimal - objective value 15
Coin0511I After Postsolve, objective 15, infeasibilities - dual 0 (0), primal 0 (0)
Clp0032I Optimal objective 15 - 0 iterations time 0.002, Presolve 0.00, Idiot 0.00
Coin3009W Conflict graph built in 0.000 seconds, density: 0.147%
